p edge 500 2000
e 1 61
e 1 79
e 1 189
e 1 194
e 2 277
e 2 293
e 2 443
e 2 448
e 3 282
e 3 326
e 3 422
e 3 497
e 4 146
e 4 224
e 4 317
e 4 481
e 5 302
e 5 317
e 5 322
e 5 416
e 6 101
e 6 126
e 6 260
e 6 397
e 7 24
e 7 173
e 7 288
e 7 481
e 8 73
e 8 268
e 8 300
e 8 369
e 9 282
e 9 328
e 9 476
e 9 498
e 10 235
e 10 337
e 10 385
e 10 451
e 11 228
e 11 382
e 11 446
e 11 448
e 12 91
e 12 174
e 12 240
e 12 421
e 13 88
e 13 221
e 13 447
e 13 481
e 14 280
e 14 311
e 14 354
e 14 411
e 15 101
e 15 170
e 15 187
e 15 465
e 16 65
e 16 384
e 16 437
e 16 497
e 17 151
e 17 284
e 17 397
e 17 415
e 18 5
e 18 17
e 18 240
e 18 438
e 19 11
e 19 105
e 19 286
e 19 492
e 20 23
e 20 33
e 20 78
e 20 190
e 21 90
e 21 141
e 21 306
e 21 468
e 22 47
e 22 59
e 22 78
e 22 307
e 23 147
e 23 150
e 23 259
e 23 494
e 24 3
e 24 8
e 24 273
e 24 309
e 25 98
e 25 172
e 25 273
e 25 373
e 26 189
e 26 222
e 26 299
e 26 461
e 27 357
e 27 375
e 27 396
e 27 438
e 28 213
e 28 312
e 28 322
e 28 454
e 29 174
e 29 297
e 29 351
e 29 356
e 30 349
e 30 364
e 30 373
e 30 375
e 31 32
e 31 111
e 31 192
e 31 356
e 32 102
e 32 109
e 32 171
e 32 377
e 33 111
e 33 174
e 33 248
e 33 275
e 34 113
e 34 120
e 34 379
e 34 409
e 35 137
e 35 181
e 35 385
e 35 392
e 36 97
e 36 117
e 36 324
e 36 370
e 37 190
e 37 307
e 37 323
e 37 486
e 38 112
e 38 398
e 38 476
e 38 486
e 39 12
e 39 111
e 39 226
e 39 408
e 40 241
e 40 282
e 40 313
e 40 375
e 41 37
e 41 82
e 41 141
e 41 313
e 42 145
e 42 228
e 42 274
e 42 310
e 43 84
e 43 163
e 43 181
e 43 384
e 44 108
e 44 204
e 44 281
e 44 496
e 45 86
e 45 189
e 45 447
e 45 484
e 46 80
e 46 369
e 46 415
e 46 488
e 47 90
e 47 104
e 47 254
e 47 380
e 48 73
e 48 240
e 48 354
e 48 396
e 49 7
e 49 251
e 49 266
e 49 316
e 50 100
e 50 128
e 50 267
e 50 477
e 51 48
e 51 95
e 51 164
e 51 410
e 52 206
e 52 213
e 52 219
e 52 243
e 53 275
e 53 275
e 53 302
e 53 338
e 54 5
e 54 55
e 54 73
e 54 190
e 55 243
e 55 271
e 55 304
e 55 420
e 56 112
e 56 147
e 56 218
e 56 404
e 57 53
e 57 174
e 57 184
e 57 483
e 58 27
e 58 89
e 58 449
e 58 471
e 59 180
e 59 207
e 59 307
e 59 342
e 60 73
e 60 282
e 60 321
e 60 397
e 61 258
e 61 336
e 61 449
e 61 473
e 62 78
e 62 167
e 62 175
e 62 185
e 63 237
e 63 352
e 63 374
e 63 452
e 64 38
e 64 259
e 64 369
e 64 446
e 65 1
e 65 199
e 65 365
e 65 395
e 66 198
e 66 268
e 66 331
e 66 464
e 67 17
e 67 103
e 67 263
e 67 267
e 68 191
e 68 317
e 68 382
e 68 440
e 69 47
e 69 222
e 69 318
e 69 475
e 70 3
e 70 11
e 70 48
e 70 85
e 71 1
e 71 112
e 71 183
e 71 372
e 72 18
e 72 117
e 72 130
e 72 408
e 73 46
e 73 281
e 73 366
e 73 447
e 74 183
e 74 226
e 74 299
e 74 403
e 75 57
e 75 149
e 75 290
e 75 442
e 76 198
e 76 202
e 76 210
e 76 409
e 77 16
e 77 164
e 77 373
e 77 465
e 78 206
e 78 256
e 78 332
e 78 389
e 79 57
e 79 426
e 79 427
e 79 500
e 80 31
e 80 114
e 80 288
e 80 429
e 81 40
e 81 313
e 81 430
e 81 471
e 82 21
e 82 159
e 82 301
e 82 488
e 83 208
e 83 212
e 83 386
e 83 435
e 84 22
e 84 85
e 84 140
e 84 488
e 85 32
e 85 65
e 85 141
e 85 493
e 86 338
e 86 359
e 86 362
e 86 401
e 87 68
e 87 154
e 87 273
e 87 465
e 88 13
e 88 83
e 88 262
e 88 352
e 89 78
e 89 187
e 89 288
e 89 421
e 90 66
e 90 341
e 90 452
e 90 474
e 91 296
e 91 381
e 91 386
e 91 494
e 92 150
e 92 182
e 92 284
e 92 385
e 93 218
e 93 241
e 93 257
e 93 413
e 94 81
e 94 142
e 94 302
e 94 475
e 95 133
e 95 294
e 95 373
e 95 497
e 96 46
e 96 118
e 96 273
e 96 355
e 97 111
e 97 171
e 97 274
e 97 377
e 98 35
e 98 116
e 98 142
e 98 356
e 99 168
e 99 377
e 99 456
e 99 495
e 100 60
e 100 407
e 100 415
e 100 472
e 101 139
e 101 241
e 101 301
e 101 405
e 102 36
e 102 141
e 102 220
e 102 320
e 103 308
e 103 319
e 103 397
e 103 413
e 104 38
e 104 120
e 104 388
e 104 493
e 105 41
e 105 165
e 105 171
e 105 489
e 106 48
e 106 186
e 106 295
e 106 344
e 107 21
e 107 117
e 107 232
e 107 405
e 108 254
e 108 325
e 108 325
e 108 373
e 109 249
e 109 288
e 109 319
e 109 355
e 110 16
e 110 127
e 110 243
e 110 379
e 111 1
e 111 106
e 111 256
e 111 283
e 112 107
e 112 140
e 112 143
e 112 424
e 113 116
e 113 311
e 113 314
e 113 320
e 114 53
e 114 210
e 114 223
e 114 304
e 115 94
e 115 215
e 115 232
e 115 232
e 116 26
e 116 56
e 116 131
e 116 255
e 117 110
e 117 251
e 117 283
e 117 362
e 118 115
e 118 155
e 118 219
e 118 479
e 119 43
e 119 124
e 119 255
e 119 403
e 120 270
e 120 342
e 120 362
e 120 497
e 121 92
e 121 204
e 121 377
e 121 498
e 122 20
e 122 137
e 122 334
e 122 374
e 123 149
e 123 185
e 123 358
e 123 447
e 124 57
e 124 170
e 124 237
e 124 321
e 125 30
e 125 236
e 125 330
e 125 351
e 126 40
e 126 143
e 126 261
e 126 461
e 127 134
e 127 138
e 127 174
e 127 245
e 128 141
e 128 228
e 128 420
e 128 464
e 129 74
e 129 358
e 129 395
e 129 417
e 130 71
e 130 329
e 130 391
e 130 430
e 131 98
e 131 162
e 131 240
e 131 361
e 132 376
e 132 388
e 132 423
e 132 475
e 133 11
e 133 175
e 133 346
e 133 388
e 134 30
e 134 196
e 134 208
e 134 235
e 135 237
e 135 266
e 135 283
e 135 485
e 136 96
e 136 343
e 136 349
e 136 426
e 137 22
e 137 29
e 137 408
e 137 487
e 138 81
e 138 319
e 138 406
e 138 485
e 139 195
e 139 221
e 139 332
e 139 478
e 140 160
e 140 188
e 140 265
e 140 467
e 141 233
e 141 257
e 141 279
e 141 358
e 142 18
e 142 83
e 142 97
e 142 463
e 143 64
e 143 325
e 143 405
e 143 428
e 144 59
e 144 113
e 144 351
e 144 457
e 145 46
e 145 223
e 145 276
e 145 349
e 146 50
e 146 170
e 146 180
e 146 366
e 147 36
e 147 77
e 147 302
e 147 457
e 148 9
e 148 252
e 148 293
e 148 479
e 149 82
e 149 124
e 149 274
e 149 315
e 150 9
e 150 48
e 150 283
e 150 330
e 151 126
e 151 257
e 151 367
e 151 392
e 152 206
e 152 404
e 152 438
e 152 474
e 153 18
e 153 254
e 153 382
e 153 421
e 154 177
e 154 210
e 154 232
e 154 348
e 155 23
e 155 129
e 155 284
e 155 289
e 156 219
e 156 305
e 156 308
e 156 490
e 157 39
e 157 233
e 157 261
e 157 265
e 158 95
e 158 125
e 158 242
e 158 426
e 159 70
e 159 175
e 159 210
e 159 409
e 160 74
e 160 194
e 160 402
e 160 418
e 161 43
e 161 60
e 161 328
e 161 331
e 162 71
e 162 298
e 162 388
e 162 441
e 163 70
e 163 269
e 163 294
e 163 397
e 164 150
e 164 153
e 164 246
e 164 352
e 165 35
e 165 84
e 165 211
e 165 332
e 166 63
e 166 139
e 166 376
e 166 495
e 167 52
e 167 255
e 167 266
e 167 299
e 168 32
e 168 130
e 168 191
e 168 349
e 169 12
e 169 112
e 169 125
e 169 258
e 170 27
e 170 257
e 170 299
e 170 305
e 171 101
e 171 224
e 171 421
e 171 485
e 172 54
e 172 55
e 172 70
e 172 229
e 173 139
e 173 293
e 173 451
e 173 461
e 174 31
e 174 61
e 174 236
e 174 452
e 175 122
e 175 148
e 175 163
e 175 264
e 176 9
e 176 95
e 176 285
e 176 497
e 177 159
e 177 234
e 177 262
e 177 420
e 178 42
e 178 51
e 178 304
e 178 340
e 179 18
e 179 189
e 179 416
e 179 418
e 180 72
e 180 168
e 180 248
e 180 298
e 181 56
e 181 196
e 181 324
e 181 392
e 182 96
e 182 445
e 182 463
e 182 496
e 183 165
e 183 238
e 183 265
e 183 477
e 184 7
e 184 150
e 184 217
e 184 303
e 185 231
e 185 266
e 185 327
e 185 390
e 186 12
e 186 27
e 186 239
e 186 360
e 187 8
e 187 249
e 187 286
e 187 445
e 188 4
e 188 122
e 188 285
e 188 291
e 189 277
e 189 308
e 189 325
e 189 339
e 190 122
e 190 192
e 190 309
e 190 476
e 191 116
e 191 250
e 191 297
e 191 367
e 192 23
e 192 163
e 192 249
e 192 392
e 193 56
e 193 242
e 193 252
e 193 485
e 194 50
e 194 210
e 194 250
e 194 254
e 195 19
e 195 19
e 195 99
e 195 318
e 196 48
e 196 230
e 196 376
e 196 462
e 197 138
e 197 175
e 197 211
e 197 470
e 198 311
e 198 386
e 198 415
e 198 443
e 199 28
e 199 219
e 199 442
e 199 487
e 200 263
e 200 281
e 200 336
e 200 460
e 201 163
e 201 230
e 201 256
e 201 434
e 202 200
e 202 252
e 202 381
e 202 499
e 203 237
e 203 395
e 203 406
e 203 445
e 204 17
e 204 338
e 204 467
e 204 499
e 205 7
e 205 104
e 205 119
e 205 417
e 206 122
e 206 265
e 206 379
e 206 406
e 207 43
e 207 198
e 207 200
e 207 203
e 208 142
e 208 229
e 208 280
e 208 321
e 209 39
e 209 212
e 209 308
e 209 468
e 210 35
e 210 326
e 210 377
e 210 495
e 211 9
e 211 55
e 211 270
e 211 336
e 212 6
e 212 307
e 212 389
e 212 443
e 213 135
e 213 254
e 213 293
e 213 395
e 214 84
e 214 133
e 214 198
e 214 499
e 215 16
e 215 90
e 215 137
e 215 236
e 216 5
e 216 209
e 216 433
e 216 495
e 217 14
e 217 264
e 217 311
e 217 389
e 218 44
e 218 168
e 218 362
e 218 492
e 219 169
e 219 355
e 219 383
e 219 475
e 220 56
e 220 259
e 220 418
e 220 469
e 221 95
e 221 244
e 221 293
e 221 477
e 222 150
e 222 217
e 222 243
e 222 389
e 223 182
e 223 308
e 223 352
e 223 408
e 224 54
e 224 213
e 224 231
e 224 336
e 225 9
e 225 137
e 225 247
e 225 424
e 226 78
e 226 179
e 226 231
e 226 484
e 227 72
e 227 247
e 227 341
e 227 357
e 228 91
e 228 202
e 228 460
e 228 490
e 229 39
e 229 56
e 229 473
e 229 480
e 230 231
e 230 258
e 230 454
e 230 473
e 231 68
e 231 177
e 231 275
e 231 394
e 232 66
e 232 70
e 232 251
e 232 328
e 233 76
e 233 99
e 233 320
e 233 377
e 234 23
e 234 279
e 234 329
e 234 431
e 235 49
e 235 75
e 235 358
e 235 419
e 236 105
e 236 112
e 236 133
e 236 497
e 237 80
e 237 420
e 237 445
e 237 469
e 238 67
e 238 232
e 238 323
e 238 498
e 239 157
e 239 211
e 239 405
e 239 432
e 240 25
e 240 129
e 240 164
e 240 230
e 241 212
e 241 216
e 241 297
e 241 438
e 242 41
e 242 218
e 242 240
e 242 291
e 243 95
e 243 157
e 243 360
e 243 487
e 244 234
e 244 255
e 244 377
e 244 480
e 245 84
e 245 91
e 245 133
e 245 295
e 246 10
e 246 76
e 246 143
e 246 450
e 247 44
e 247 63
e 247 115
e 247 429
e 248 71
e 248 294
e 248 411
e 248 462
e 249 4
e 249 119
e 249 409
e 249 446
e 250 19
e 250 99
e 250 165
e 250 467
e 251 162
e 251 186
e 251 309
e 251 394
e 252 43
e 252 349
e 252 402
e 252 494
e 253 58
e 253 60
e 253 139
e 253 260
e 254 104
e 254 165
e 254 293
e 254 354
e 255 82
e 255 100
e 255 193
e 255 235
e 256 10
e 256 109
e 256 162
e 256 377
e 257 57
e 257 223
e 257 224
e 257 371
e 258 19
e 258 134
e 258 433
e 258 483
e 259 62
e 259 78
e 259 137
e 259 394
e 260 58
e 260 81
e 260 235
e 260 495
e 261 282
e 261 397
e 261 452
e 261 452
e 262 150
e 262 238
e 262 260
e 262 494
e 263 59
e 263 105
e 263 108
e 263 312
e 264 19
e 264 223
e 264 363
e 264 459
e 265 121
e 265 311
e 265 322
e 265 392
e 266 120
e 266 397
e 266 400
e 266 431
e 267 5
e 267 59
e 267 431
e 267 491
e 268 115
e 268 230
e 268 423
e 268 490
e 269 133
e 269 235
e 269 353
e 269 493
e 270 36
e 270 269
e 270 285
e 270 293
e 271 26
e 271 96
e 271 236
e 271 356
e 272 104
e 272 441
e 272 466
e 272 495
e 273 45
e 273 105
e 273 182
e 273 454
e 274 42
e 274 163
e 274 355
e 274 472
e 275 134
e 275 238
e 275 247
e 275 368
e 276 31
e 276 59
e 276 99
e 276 366
e 277 113
e 277 341
e 277 356
e 277 441
e 278 55
e 278 131
e 278 161
e 278 198
e 279 102
e 279 187
e 279 188
e 279 483
e 280 245
e 280 267
e 280 274
e 280 308
e 281 3
e 281 15
e 281 66
e 281 79
e 282 13
e 282 349
e 282 462
e 282 470
e 283 74
e 283 155
e 283 437
e 283 453
e 284 89
e 284 126
e 284 387
e 284 497
e 285 109
e 285 112
e 285 204
e 285 326
e 286 61
e 286 384
e 286 450
e 286 494
e 287 53
e 287 77
e 287 315
e 287 434
e 288 23
e 288 126
e 288 405
e 288 488
e 289 27
e 289 144
e 289 153
e 289 164
e 290 135
e 290 187
e 290 399
e 290 437
e 291 2
e 291 53
e 291 138
e 291 253
e 292 23
e 292 92
e 292 107
e 292 366
e 293 283
e 293 318
e 293 448
e 293 456
e 294 36
e 294 110
e 294 167
e 294 246
e 295 87
e 295 225
e 295 361
e 295 370
e 296 30
e 296 50
e 296 97
e 296 171
e 297 43
e 297 54
e 297 173
e 297 485
e 298 7
e 298 45
e 298 316
e 298 476
e 299 11
e 299 166
e 299 342
e 299 461
e 300 37
e 300 250
e 300 380
e 300 497
e 301 209
e 301 250
e 301 251
e 301 433
e 302 129
e 302 208
e 302 455
e 302 469
e 303 15
e 303 254
e 303 286
e 303 346
e 304 63
e 304 222
e 304 290
e 304 476
e 305 25
e 305 82
e 305 150
e 305 464
e 306 7
e 306 195
e 306 246
e 306 264
e 307 32
e 307 270
e 307 334
e 307 391
e 308 149
e 308 390
e 308 393
e 308 419
e 309 103
e 309 232
e 309 343
e 309 401
e 310 135
e 310 222
e 310 397
e 310 481
e 311 83
e 311 154
e 311 459
e 311 498
e 312 51
e 312 206
e 312 318
e 312 460
e 313 189
e 313 214
e 313 220
e 313 406
e 314 48
e 314 156
e 314 355
e 314 492
e 315 172
e 315 356
e 315 369
e 315 462
e 316 63
e 316 102
e 316 425
e 316 464
e 317 28
e 317 94
e 317 223
e 317 431
e 318 155
e 318 265
e 318 484
e 318 494
e 319 123
e 319 225
e 319 265
e 319 384
e 320 57
e 320 107
e 320 132
e 320 344
e 321 139
e 321 194
e 321 329
e 321 482
e 322 42
e 322 115
e 322 187
e 322 334
e 323 146
e 323 230
e 323 258
e 323 412
e 324 73
e 324 149
e 324 211
e 324 305
e 325 65
e 325 236
e 325 266
e 325 441
e 326 179
e 326 191
e 326 272
e 326 356
e 327 225
e 327 306
e 327 449
e 327 473
e 328 89
e 328 157
e 328 284
e 328 448
e 329 19
e 329 272
e 329 293
e 329 354
e 330 17
e 330 88
e 330 151
e 330 460
e 331 132
e 331 140
e 331 425
e 331 425
e 332 63
e 332 170
e 332 253
e 332 326
e 333 178
e 333 323
e 333 427
e 333 456
e 334 33
e 334 37
e 334 84
e 334 136
e 335 110
e 335 170
e 335 349
e 335 449
e 336 81
e 336 220
e 336 391
e 336 402
e 337 216
e 337 257
e 337 445
e 337 491
e 338 58
e 338 244
e 338 304
e 338 453
e 339 36
e 339 157
e 339 191
e 339 341
e 340 360
e 340 404
e 340 444
e 340 469
e 341 108
e 341 328
e 341 362
e 341 474
e 342 242
e 342 285
e 342 305
e 342 345
e 343 55
e 343 107
e 343 198
e 343 366
e 344 144
e 344 234
e 344 375
e 344 491
e 345 195
e 345 227
e 345 295
e 345 439
e 346 11
e 346 428
e 346 449
e 346 482
e 347 170
e 347 205
e 347 256
e 347 307
e 348 50
e 348 114
e 348 310
e 348 385
e 349 189
e 349 437
e 349 454
e 349 455
e 350 69
e 350 166
e 350 197
e 350 340
e 351 20
e 351 165
e 351 167
e 351 379
e 352 75
e 352 125
e 352 177
e 352 260
e 353 126
e 353 409
e 353 440
e 353 457
e 354 43
e 354 66
e 354 83
e 354 368
e 355 162
e 355 237
e 355 329
e 355 358
e 356 24
e 356 37
e 356 89
e 356 149
e 357 96
e 357 159
e 357 242
e 357 258
e 358 207
e 358 353
e 358 465
e 358 495
e 359 72
e 359 161
e 359 183
e 359 366
e 360 154
e 360 178
e 360 267
e 360 379
e 361 44
e 361 140
e 361 408
e 361 493
e 362 11
e 362 20
e 362 360
e 362 482
e 363 201
e 363 270
e 363 280
e 363 421
e 364 79
e 364 147
e 364 356
e 364 398
e 365 5
e 365 17
e 365 121
e 365 443
e 366 105
e 366 153
e 366 192
e 366 209
e 367 93
e 367 163
e 367 214
e 367 246
e 368 208
e 368 339
e 368 347
e 368 479
e 369 45
e 369 196
e 369 242
e 369 251
e 370 58
e 370 121
e 370 335
e 370 349
e 371 16
e 371 43
e 371 235
e 371 341
e 372 35
e 372 97
e 372 203
e 372 495
e 373 269
e 373 314
e 373 472
e 373 476
e 374 249
e 374 313
e 374 392
e 374 402
e 375 22
e 375 104
e 375 268
e 375 317
e 376 83
e 376 120
e 376 321
e 376 492
e 377 76
e 377 328
e 377 335
e 377 436
e 378 18
e 378 165
e 378 280
e 378 289
e 379 336
e 379 349
e 379 360
e 379 414
e 380 60
e 380 90
e 380 131
e 380 471
e 381 58
e 381 62
e 381 400
e 381 416
e 382 52
e 382 65
e 382 77
e 382 454
e 383 277
e 383 379
e 383 463
e 383 473
e 384 127
e 384 129
e 384 179
e 384 421
e 385 185
e 385 200
e 385 230
e 385 441
e 386 109
e 386 134
e 386 201
e 386 364
e 387 276
e 387 281
e 387 365
e 387 461
e 388 115
e 388 330
e 388 417
e 388 458
e 389 131
e 389 244
e 389 265
e 389 320
e 390 206
e 390 214
e 390 223
e 390 490
e 391 38
e 391 49
e 391 123
e 391 268
e 392 174
e 392 300
e 392 344
e 392 428
e 393 53
e 393 67
e 393 105
e 393 159
e 394 31
e 394 287
e 394 296
e 394 381
e 395 59
e 395 79
e 395 261
e 395 381
e 396 111
e 396 187
e 396 383
e 396 461
e 397 89
e 397 244
e 397 319
e 397 407
e 398 5
e 398 57
e 398 285
e 398 390
e 399 132
e 399 269
e 399 386
e 399 415
e 400 256
e 400 345
e 400 474
e 400 481
e 401 47
e 401 94
e 401 156
e 401 241
e 402 169
e 402 205
e 402 437
e 402 455
e 403 75
e 403 95
e 403 195
e 403 411
e 404 99
e 404 233
e 404 291
e 404 359
e 405 129
e 405 158
e 405 202
e 405 311
e 406 241
e 406 312
e 406 349
e 406 439
e 407 54
e 407 142
e 407 167
e 407 316
e 408 58
e 408 146
e 408 451
e 408 463
e 409 154
e 409 201
e 409 217
e 409 266
e 410 33
e 410 218
e 410 239
e 410 472
e 411 79
e 411 127
e 411 311
e 411 332
e 412 100
e 412 120
e 412 292
e 412 433
e 413 66
e 413 247
e 413 294
e 413 343
e 414 244
e 414 298
e 414 447
e 414 485
e 415 87
e 415 186
e 415 372
e 415 460
e 416 113
e 416 160
e 416 160
e 416 349
e 417 166
e 417 256
e 417 284
e 417 326
e 418 70
e 418 128
e 418 152
e 418 307
e 419 196
e 419 270
e 419 304
e 419 371
e 420 69
e 420 83
e 420 155
e 420 167
e 421 145
e 421 159
e 421 233
e 421 489
e 422 77
e 422 332
e 422 435
e 422 490
e 423 262
e 423 271
e 423 461
e 423 477
e 424 26
e 424 107
e 424 220
e 424 395
e 425 175
e 425 293
e 425 444
e 425 456
e 426 408
e 426 414
e 426 486
e 426 493
e 427 73
e 427 145
e 427 248
e 427 401
e 428 231
e 428 314
e 428 318
e 428 322
e 429 278
e 429 301
e 429 386
e 429 439
e 430 93
e 430 440
e 430 454
e 430 496
e 431 112
e 431 162
e 431 178
e 431 239
e 432 158
e 432 361
e 432 454
e 432 470
e 433 86
e 433 190
e 433 266
e 433 370
e 434 2
e 434 292
e 434 356
e 434 409
e 435 289
e 435 315
e 435 318
e 435 352
e 436 259
e 436 304
e 436 451
e 436 459
e 437 41
e 437 183
e 437 300
e 437 451
e 438 122
e 438 199
e 438 265
e 438 409
e 439 150
e 439 350
e 439 368
e 439 422
e 440 77
e 440 103
e 440 158
e 440 418
e 441 67
e 441 251
e 441 333
e 441 431
e 442 89
e 442 280
e 442 288
e 442 372
e 443 137
e 443 140
e 443 174
e 443 215
e 444 30
e 444 181
e 444 280
e 444 378
e 445 90
e 445 98
e 445 196
e 445 374
e 446 154
e 446 253
e 446 293
e 446 460
e 447 52
e 447 104
e 447 227
e 447 404
e 448 154
e 448 173
e 448 217
e 448 438
e 449 21
e 449 95
e 449 203
e 449 497
e 450 122
e 450 179
e 450 204
e 450 364
e 451 159
e 451 281
e 451 294
e 451 389
e 452 225
e 452 382
e 452 412
e 452 457
e 453 56
e 453 403
e 453 424
e 453 448
e 454 84
e 454 84
e 454 433
e 454 437
e 455 13
e 455 132
e 455 173
e 455 364
e 456 237
e 456 285
e 456 313
e 456 317
e 457 65
e 457 220
e 457 340
e 457 388
e 458 10
e 458 42
e 458 244
e 458 468
e 459 141
e 459 212
e 459 354
e 459 414
e 460 87
e 460 92
e 460 415
e 460 427
e 461 197
e 461 224
e 461 425
e 461 450
e 462 74
e 462 95
e 462 135
e 462 149
e 463 15
e 463 38
e 463 448
e 463 477
e 464 32
e 464 32
e 464 121
e 464 338
e 465 145
e 465 162
e 465 247
e 465 320
e 466 411
e 466 422
e 466 451
e 466 461
e 467 33
e 467 87
e 467 234
e 467 327
e 468 42
e 468 294
e 468 298
e 468 326
e 469 105
e 469 203
e 469 219
e 469 286
e 470 133
e 470 224
e 470 371
e 470 372
e 471 25
e 471 76
e 471 221
e 471 296
e 472 120
e 472 296
e 472 300
e 472 469
e 473 96
e 473 244
e 473 286
e 473 484
e 474 127
e 474 175
e 474 315
e 474 479
e 475 176
e 475 295
e 475 298
e 475 373
e 476 100
e 476 135
e 476 214
e 476 291
e 477 104
e 477 186
e 477 287
e 477 461
e 478 11
e 478 106
e 478 419
e 478 488
e 479 29
e 479 230
e 479 244
e 479 303
e 480 362
e 480 410
e 480 467
e 480 485
e 481 3
e 481 289
e 481 355
e 481 492
e 482 150
e 482 388
e 482 440
e 482 463
e 483 143
e 483 226
e 483 298
e 483 410
e 484 41
e 484 180
e 484 388
e 484 400
e 485 37
e 485 47
e 485 167
e 485 297
e 486 136
e 486 189
e 486 391
e 486 403
e 487 25
e 487 173
e 487 273
e 487 292
e 488 183
e 488 279
e 488 337
e 488 455
e 489 159
e 489 264
e 489 426
e 489 442
e 490 37
e 490 89
e 490 143
e 490 477
e 491 4
e 491 128
e 491 266
e 491 350
e 492 195
e 492 205
e 492 347
e 492 351
e 493 68
e 493 148
e 493 282
e 493 309
e 494 34
e 494 188
e 494 208
e 494 218
e 495 206
e 495 404
e 495 432
e 495 457
e 496 34
e 496 96
e 496 120
e 496 493
e 497 181
e 497 412
e 497 472
e 497 480
e 498 42
e 498 152
e 498 167
e 498 308
e 499 70
e 499 102
e 499 186
e 499 201
e 500 164
e 500 195
e 500 302
e 500 490
